projet_m2_wvcp/projet_m2_wvcp/reduced_wvcp_dzn/zeroin.i.2.clq.dzn
cliques=[{0,1,2,6,7,14,18,19,31,40,41,46,47,50,51,55,56,57,58,59,63,76,80,85,88,89,94,95,98},{0,1,2,6,7,14,18,19,31,40,41,46,47,50,51,55,56,57,58,59,63,76,80,85,88,89,94,95,98},{0,1,2,6,7,14,18,19,31,40,41,46,47,50,51,55,56,57,58,59,63,76,80,85,88,89,94,95,98},{3,5,8,20,29,32,33,42,43,44,48,62,64,74,78,81,99},{0,4,6,7,14,15,16,18,19,27,31,40,41,46,47,50,51,55,56,57,58,59,63,76,88,98},{1,2,5,14,19,41,57,59,62,80,85,88,89,94,95},{0,1,2,6,7,14,18,19,31,40,41,46,47,50,51,55,56,57,58,59,63,76,80,85,88,89,94,95,98},{0,1,2,6,7,14,18,19,31,40,41,46,47,50,51,55,56,57,58,59,63,76,80,85,88,89,94,95,98},{5,8,20,29,32,33,36,42,43,44,48,53,62,64,74,77,78,79,81,86,91,97,99},{0,6,7,9,14,18,19,26,31,35,40,41,46,47,50,51,55,56,57,58,59,63,76,88,89,94,96,98},{0,6,7,10,14,15,16,18,19,31,40,41,46,47,50,51,55,56,57,58,59,63,76,88,89,94,98},{0,6,7,11,12,14,18,19,24,31,40,41,46,47,50,51,55,56,57,58,59,63,76,88,89,94,98},{0,6,7,12,11,14,18,19,24,31,40,41,46,47,50,51,55,56,57,58,59,63,76,88,89,94,98},{0,6,7,13,17,18,28,31,34,40,46,47,50,51,55,56,57,58,63,65,72,76,82,90,92,98},{0,1,2,6,7,14,18,19,31,40,41,46,47,50,51,55,56,57,58,59,63,76,80,85,88,89,94,95,98},{0,6,7,14,15,16,18,19,21,31,37,40,41,46,47,50,51,54,55,56,57,58,59,63,71,76,88,98},{0,6,7,14,15,16,18,19,21,31,37,40,41,46,47,50,51,54,55,56,57,58,59,63,71,76,88,98},{0,6,7,13,17,18,28,31,34,40,46,47,50,51,55,56,57,58,63,65,72,76,82,90,92,98},{0,1,2,6,7,14,18,19,31,40,41,46,47,50,51,55,56,57,58,59,63,76,80,85,88,89,94,95,98},{0,1,2,6,7,14,18,19,31,40,41,46,47,50,51,55,56,57,58,59,63,76,80,85,88,89,94,95,98},{5,8,20,29,32,33,36,42,43,44,48,53,62,64,74,77,78,79,81,86,91,97,99},{0,6,7,14,15,16,18,19,21,31,37,40,41,46,47,50,51,54,55,56,57,58,59,63,71,76,88,98},{0,6,7,14,18,19,22,24,31,39,40,41,46,47,50,51,55,56,57,58,59,63,76,88,89,94,98},{0,6,7,14,15,16,18,19,23,31,40,41,46,47,50,51,55,56,57,58,59,61,63,76,88,98},{0,6,7,14,18,19,24,25,31,38,40,41,46,47,50,51,55,56,57,58,59,63,76,88,89,94,95,98},{0,1,6,7,14,18,19,25,31,40,41,45,46,47,50,51,55,56,57,58,59,63,76,85,88,89,94,95,98},{0,6,7,9,14,18,19,26,31,35,40,41,46,47,50,51,55,56,57,58,59,63,76,88,89,94,96,98},{0,4,6,7,14,15,16,18,19,27,31,40,41,46,47,50,51,55,56,57,58,59,63,76,88,98},{0,6,7,13,17,18,28,31,34,40,46,47,50,51,55,56,57,58,63,65,72,76,82,90,92,98},{5,8,20,29,32,33,36,42,43,44,48,53,62,64,74,77,78,79,81,86,91,97,99},{0,6,7,18,30,31,40,46,47,50,51,55,56,58,63,76,98},{0,1,2,6,7,14,18,19,31,40,41,46,47,50,51,55,56,57,58,59,63,76,80,85,88,89,94,95,98},{5,8,20,29,32,33,36,42,43,44,48,53,62,64,74,77,78,79,81,86,91,97,99},{5,8,20,29,32,33,36,42,43,44,48,53,62,64,74,77,78,79,81,86,91,97,99},{0,6,7,13,17,18,28,31,34,40,46,47,50,51,55,56,57,58,63,65,72,76,82,90,92,98},{0,6,7,9,14,18,19,26,31,35,40,41,46,47,50,51,55,56,57,58,59,63,76,88,89,94,96,98},{5,8,20,29,32,33,36,42,43,44,48,53,62,64,74,77,79,78,81,86,91,97,99},{0,6,7,14,15,16,18,19,21,31,37,40,41,46,47,50,51,54,55,56,57,58,59,63,71,76,88,98},{0,6,7,14,18,19,24,25,31,38,40,41,46,47,50,51,55,56,57,58,59,63,76,88,89,94,95,98},{0,6,7,14,18,19,22,24,31,39,40,41,46,47,50,51,55,56,57,58,59,63,76,88,89,94,98},{0,1,2,6,7,14,18,19,31,40,41,46,47,50,51,55,56,57,58,59,63,76,80,85,88,89,94,95,98},{0,1,2,6,7,14,18,19,31,40,41,46,47,50,51,55,56,57,58,59,63,76,80,85,88,89,94,95,98},{5,8,20,29,32,33,36,42,43,44,48,53,62,64,74,77,78,79,81,86,91,97,99},{5,8,20,29,32,33,36,43,42,44,48,53,62,64,74,77,78,79,81,86,91,97,99},{5,8,20,29,32,33,36,44,42,43,48,53,62,64,74,77,78,79,81,86,91,97,99},{0,1,6,7,14,18,19,25,31,40,41,45,46,47,50,51,55,56,57,58,59,63,76,85,88,89,94,95,98},{0,1,2,6,7,14,18,19,31,40,41,46,47,50,51,55,56,57,58,59,63,76,80,85,88,89,94,95,98},{0,1,2,6,7,14,18,19,31,40,41,46,47,50,51,55,56,57,58,59,63,76,80,85,88,89,94,95,98},{5,8,20,29,32,33,36,42,43,44,48,53,62,64,74,77,78,79,81,86,91,97,99},{0,6,7,14,15,16,18,19,31,40,41,46,47,49,50,51,55,56,57,58,59,63,76,88,89,93,94,98},{0,1,2,6,7,14,18,19,31,40,41,46,47,50,51,55,56,57,58,59,63,76,80,85,88,89,94,95,98},{0,1,2,6,7,14,18,19,31,40,41,46,47,50,51,55,56,57,58,59,63,76,80,85,88,89,94,95,98},{0,1,6,7,14,18,19,31,40,41,45,46,47,50,51,52,55,56,57,58,59,63,76,80,85,88,89,94,95,98},{5,8,20,29,32,33,36,42,43,44,48,53,62,64,74,77,79,78,81,86,91,97,99},{0,6,7,14,15,16,18,19,21,31,37,40,41,46,47,50,51,54,55,56,57,58,59,63,71,76,88,98},{0,1,2,6,7,14,18,19,31,40,41,46,47,50,51,55,56,57,58,59,63,76,80,85,88,89,94,95,98},{0,1,2,6,7,14,18,19,31,40,41,46,47,50,51,55,56,57,58,59,63,76,80,85,88,89,94,95,98},{0,1,2,6,7,14,18,19,31,40,41,46,47,50,51,55,56,57,58,59,63,76,80,85,88,89,94,95,98},{0,1,2,6,7,14,18,19,31,40,41,46,47,50,51,55,56,57,58,59,63,76,80,85,88,89,94,95,98},{0,1,2,6,7,14,18,19,31,40,41,46,47,50,51,55,56,57,58,59,63,76,80,85,88,89,94,95,98},{0,6,7,14,18,19,26,31,35,40,41,46,47,50,51,55,56,57,58,59,60,63,76,87,88,89,94,96,98},{0,6,7,14,15,16,18,19,23,31,40,41,46,47,50,51,55,56,57,58,59,61,63,76,88,98},{1,2,5,14,19,41,57,59,62,80,85,88,89,94,95},{0,1,2,6,7,14,18,19,31,40,41,46,47,50,51,55,56,57,58,59,63,76,80,85,88,89,94,95,98},{5,8,20,29,32,33,36,42,43,44,48,53,62,64,74,77,78,79,81,86,91,97,99},{0,6,7,13,17,18,28,31,34,40,46,47,50,51,55,56,57,58,63,65,72,76,82,90,92,98},{5,8,20,29,32,33,42,43,44,48,62,64,66,74,78,81,99},{0,6,7,14,18,19,24,25,31,40,41,46,47,50,51,55,56,57,58,59,63,67,76,85,88,89,94,95,98},{0,1,6,7,14,18,19,31,40,41,46,47,50,51,55,56,57,58,59,63,68,69,76,80,85,88,89,94,95,98},{0,1,6,7,14,18,19,31,40,41,46,47,50,51,55,56,57,58,59,63,69,68,76,80,85,88,89,94,95,98},{5,8,20,29,32,33,42,43,44,48,62,64,70,73,74,75,77,79,78,81,83,84,86,99},{0,6,7,14,15,16,18,19,21,31,37,40,41,46,47,50,51,54,55,56,57,58,59,63,71,76,88,98},{0,6,7,13,17,18,28,31,34,40,46,47,50,51,55,56,57,58,63,65,72,76,82,90,92,98},{5,8,20,29,32,33,42,43,44,48,62,64,70,73,74,75,77,79,78,81,83,84,86,99},{5,8,20,29,32,33,36,42,43,44,48,53,62,64,74,77,78,79,81,86,91,97,99},{5,8,20,29,32,33,42,43,44,48,62,64,70,73,74,75,77,79,78,81,83,84,86,99},{0,1,2,6,7,14,18,19,31,40,41,46,47,50,51,55,56,57,58,59,63,76,80,85,88,89,94,95,98},{5,8,20,29,32,33,36,42,43,44,48,53,62,64,74,77,79,78,81,86,91,97,99},{5,8,20,29,32,33,36,42,43,44,48,53,62,64,74,77,78,79,81,86,91,97,99},{5,8,20,29,32,33,36,42,43,44,48,53,62,64,74,77,79,78,81,86,91,97,99},{0,1,2,6,7,14,18,19,31,40,41,46,47,50,51,55,56,57,58,59,63,76,80,85,88,89,94,95,98},{5,8,20,29,32,33,36,42,43,44,48,53,62,64,74,77,78,79,81,86,91,97,99},{0,6,7,13,17,18,28,31,34,40,46,47,50,51,55,56,57,58,63,65,72,76,82,90,92,98},{5,8,20,29,32,33,42,43,44,48,62,64,70,73,74,75,77,79,78,81,83,84,86,99},{5,8,20,29,32,33,42,43,44,48,62,64,70,73,74,75,77,79,78,81,83,84,86,99},{0,1,2,6,7,14,18,19,31,40,41,46,47,50,51,55,56,57,58,59,63,76,80,85,88,89,94,95,98},{5,8,20,29,32,33,36,42,43,44,48,53,62,64,74,77,79,78,81,86,91,97,99},{0,6,7,14,18,19,26,31,35,40,41,46,47,50,51,55,56,57,58,59,60,63,76,87,88,89,94,96,98},{0,1,2,6,7,14,18,19,31,40,41,46,47,50,51,55,56,57,58,59,63,76,80,85,88,89,94,95,98},{0,1,2,6,7,14,18,19,31,40,41,46,47,50,51,55,56,57,58,59,63,76,80,85,88,89,94,95,98},{0,6,7,13,17,18,28,31,34,40,46,47,50,51,55,56,57,58,63,65,72,76,82,90,92,98},{5,8,20,29,32,33,36,42,43,44,48,53,62,64,74,77,79,78,81,86,91,97,99},{0,6,7,13,17,18,28,31,34,40,46,47,50,51,55,56,57,58,63,65,72,76,82,90,92,98},{0,6,7,14,15,16,18,19,31,40,41,46,47,49,50,51,55,56,57,58,59,63,76,88,89,93,94,98},{0,1,2,6,7,14,18,19,31,40,41,46,47,50,51,55,56,57,58,59,63,76,80,85,88,89,94,95,98},{0,1,2,6,7,14,18,19,31,40,41,46,47,50,51,55,56,57,58,59,63,76,80,85,88,89,94,95,98},{0,6,7,9,14,18,19,26,31,35,40,41,46,47,50,51,55,56,57,58,59,63,76,88,89,94,96,98},{5,8,20,29,32,33,36,42,43,44,48,53,62,64,74,77,79,78,81,86,91,97,99},{0,1,2,6,7,14,18,19,31,40,41,46,47,50,51,55,56,57,58,59,63,76,80,85,88,89,94,95,98},{5,8,20,29,32,33,36,42,43,44,48,53,62,64,74,77,78,79,81,86,91,97,99}];
nr_cliques=100;
