projet_m2_wvcp/projet_m2_wvcp/reduced_wvcp_dzn/zeroin.i.2.dzn
name="zeroin.i.2";
nr_vertices=100;
nr_edges=2129;
neighborhoods=[{1,2,3,4,6,7,9,10,11,12,13,14,15,16,17,18,19,21,22,23,24,25,26,27,28,30,31,34,35,36,37,38,39,40,41,45,46,47,49,50,51,52,53,54,55,56,57,58,59,60,61,63,65,66,67,68,69,70,71,72,73,75,76,77,79,80,82,83,84,85,86,87,88,89,90,91,92,93,94,95,96,97,98},{0,2,5,6,7,14,15,18,19,25,31,40,41,45,46,47,50,51,52,55,56,57,58,59,62,63,68,69,76,80,85,88,89,94,95,98},{0,1,5,6,7,14,18,19,31,40,41,46,47,50,51,55,56,57,58,59,62,63,76,80,85,88,89,94,95,98},{0,5,7,8,20,29,31,32,33,40,42,43,44,46,48,50,51,55,56,62,63,64,74,76,78,81,98,99},{0,5,6,7,14,15,16,18,19,27,31,40,41,46,47,50,51,55,56,57,58,59,62,63,76,88,98},{1,2,3,4,8,9,10,11,12,13,14,15,16,17,19,20,21,22,23,24,25,26,27,28,29,30,32,33,34,35,36,37,38,39,41,42,43,44,45,48,49,52,53,54,57,59,60,61,62,64,65,66,67,68,69,70,71,72,73,74,75,77,78,79,80,81,82,83,84,85,86,87,88,89,90,91,92,93,94,95,96,97,99},{0,1,2,4,7,9,10,11,12,13,14,15,16,17,18,19,21,22,23,24,25,26,27,28,30,31,34,35,36,37,38,39,40,41,45,46,47,49,50,51,52,53,54,55,56,57,58,59,60,61,63,65,67,68,69,71,72,76,77,79,80,82,85,86,87,88,89,90,91,92,93,94,95,96,97,98},{0,1,2,3,4,6,9,10,11,12,13,14,15,16,17,18,19,21,22,23,24,25,26,27,28,30,31,34,35,37,38,39,40,41,45,46,47,49,50,51,52,54,55,56,57,58,59,60,61,63,65,66,67,68,69,70,71,72,73,76,80,82,83,85,87,88,89,90,92,93,94,95,96,98},{3,5,20,29,30,32,33,34,36,42,43,44,48,53,62,64,66,70,72,73,74,75,77,78,79,81,83,84,86,91,97,99},{0,5,6,7,14,18,19,26,31,35,40,41,46,47,50,51,55,56,57,58,59,62,63,76,88,89,94,96,98},{0,5,6,7,14,15,16,18,19,31,40,41,46,47,50,51,55,56,57,58,59,62,63,76,88,89,94,98},{0,5,6,7,12,14,18,19,24,31,40,41,46,47,50,51,55,56,57,58,59,62,63,76,88,89,94,98},{0,5,6,7,11,14,18,19,24,31,40,41,46,47,50,51,55,56,57,58,59,62,63,76,88,89,94,98},{0,5,6,7,17,18,28,31,32,34,40,46,47,50,51,55,56,57,58,62,63,65,72,76,82,90,92,98},{0,1,2,4,5,6,7,9,10,11,12,15,16,18,19,21,22,23,24,25,26,27,31,35,37,38,39,40,41,42,43,44,45,46,47,49,50,51,52,54,55,56,57,58,59,60,61,62,63,67,68,69,71,76,78,80,85,87,88,89,93,94,95,96,98,99},{0,1,4,5,6,7,10,14,16,18,19,21,23,27,31,37,40,41,42,43,44,46,47,49,50,51,54,55,56,57,58,59,61,62,63,71,76,78,80,85,88,89,93,94,98,99},{0,4,5,6,7,10,14,15,18,19,21,23,27,31,37,40,41,42,43,44,46,47,49,50,51,54,55,56,57,58,59,61,62,63,71,76,78,88,89,93,94,98,99},{0,5,6,7,13,18,28,31,32,33,34,40,46,47,50,51,55,56,57,58,62,63,65,72,76,82,90,92,98},{0,1,2,4,6,7,9,10,11,12,13,14,15,16,17,19,21,22,23,24,25,26,27,28,30,31,34,35,37,38,39,40,41,45,46,47,49,50,51,52,54,55,56,57,58,59,60,61,63,65,67,68,69,71,72,76,80,82,85,87,88,89,90,92,93,94,95,96,98},{0,1,2,4,5,6,7,9,10,11,12,14,15,16,18,21,22,23,24,25,26,27,31,35,37,38,39,40,41,45,46,47,49,50,51,52,54,55,56,57,58,59,60,61,62,63,67,68,69,71,76,80,85,87,88,89,93,94,95,96,98},{3,5,8,29,30,32,33,34,36,42,43,44,48,53,62,64,65,66,70,72,73,74,75,77,78,79,81,82,83,84,86,90,91,97,99},{0,5,6,7,14,15,16,18,19,31,37,40,41,46,47,50,51,54,55,56,57,58,59,62,63,71,76,88,98},{0,5,6,7,14,18,19,24,31,39,40,41,46,47,50,51,55,56,57,58,59,62,63,76,88,89,94,95,98},{0,5,6,7,14,15,16,18,19,31,40,41,46,47,50,51,55,56,57,58,59,61,62,63,76,88,98},{0,5,6,7,11,12,14,18,19,22,25,31,38,39,40,41,46,47,50,51,55,56,57,58,59,62,63,67,76,85,88,89,94,95,96,98},{0,1,5,6,7,14,18,19,24,31,38,40,41,45,46,47,50,51,55,56,57,58,59,62,63,67,76,85,88,89,94,95,98},{0,5,6,7,9,14,18,19,31,35,40,41,46,47,50,51,55,56,57,58,59,60,62,63,76,87,88,89,94,96,98},{0,4,5,6,7,14,15,16,18,19,31,40,41,46,47,50,51,55,56,57,58,59,62,63,76,88,98},{0,5,6,7,13,17,18,31,34,40,46,47,50,51,55,56,57,58,62,63,65,72,76,82,90,92,98},{3,5,8,20,30,32,33,34,36,42,43,44,48,53,62,64,66,70,72,73,74,75,77,78,79,81,82,83,84,86,91,97,99},{0,5,6,7,8,18,20,29,31,32,33,40,46,47,48,50,51,55,56,58,63,64,76,81,98},{0,1,2,3,4,6,7,9,10,11,12,13,14,15,16,17,18,19,21,22,23,24,25,26,27,28,30,34,35,36,37,38,39,40,41,45,46,47,49,50,51,52,53,54,55,56,57,58,59,60,61,63,65,66,67,68,69,71,72,76,77,79,80,82,85,86,87,88,89,90,91,92,93,94,95,96,97,98},{3,5,8,13,17,20,29,30,33,34,36,42,43,44,48,53,62,64,65,66,70,72,73,74,75,77,78,79,81,82,83,84,86,90,91,92,97,99},{3,5,8,17,20,29,30,32,34,36,42,43,44,48,53,62,64,65,66,70,72,73,74,75,77,78,79,81,82,83,84,86,90,91,92,97,99},{0,5,6,7,8,13,17,18,20,28,29,31,32,33,40,46,47,50,51,55,56,57,58,62,63,64,65,72,76,81,82,90,92,98},{0,5,6,7,9,14,18,19,26,31,40,41,46,47,50,51,55,56,57,58,59,60,62,63,76,87,88,89,94,96,98},{0,5,6,8,20,29,31,32,33,40,42,43,44,46,48,50,53,55,62,63,64,74,77,78,79,81,86,91,97,98,99},{0,5,6,7,14,15,16,18,19,21,31,40,41,46,47,50,51,54,55,56,57,58,59,62,63,71,76,88,94,98},{0,5,6,7,14,18,19,24,25,31,40,41,46,47,50,51,55,56,57,58,59,62,63,76,88,89,94,95,98},{0,5,6,7,14,18,19,22,24,31,40,41,46,47,50,51,55,56,57,58,59,62,63,76,88,89,94,98},{0,1,2,3,4,6,7,9,10,11,12,13,14,15,16,17,18,19,21,22,23,24,25,26,27,28,30,31,34,35,36,37,38,39,41,45,46,47,49,50,51,52,53,54,55,56,57,58,59,60,61,63,65,66,67,68,69,71,72,76,77,79,80,82,85,86,87,88,89,90,91,92,93,94,95,96,97,98},{0,1,2,4,5,6,7,9,10,11,12,14,15,16,18,19,21,22,23,24,25,26,27,31,35,37,38,39,40,42,43,44,45,46,47,49,50,51,52,54,55,56,57,58,59,60,61,62,63,67,68,69,71,76,78,80,85,87,88,89,93,94,95,96,98,99},{3,5,8,14,15,16,20,29,32,33,36,41,43,44,48,53,57,59,62,64,66,70,73,74,75,77,78,79,81,83,84,86,88,91,97,99},{3,5,8,14,15,16,20,29,32,33,36,41,42,44,48,53,57,59,62,64,66,70,73,74,75,77,78,79,81,83,84,86,88,91,97,99},{3,5,8,14,15,16,20,29,32,33,36,41,42,43,48,53,57,59,62,64,66,70,73,74,75,77,78,79,81,83,84,86,88,91,97,99},{0,1,5,6,7,14,18,19,25,31,40,41,46,47,50,51,52,55,56,57,58,59,62,63,76,80,85,88,89,94,95,98},{0,1,2,3,4,6,7,9,10,11,12,13,14,15,16,17,18,19,21,22,23,24,25,26,27,28,30,31,34,35,36,37,38,39,40,41,45,47,49,50,51,52,53,54,55,56,57,58,59,60,61,63,65,66,67,68,69,70,71,72,73,75,76,77,79,80,82,83,84,85,86,87,88,89,90,91,92,93,94,95,96,97,98},{0,1,2,4,6,7,9,10,11,12,13,14,15,16,17,18,19,21,22,23,24,25,26,27,28,30,31,34,35,37,38,39,40,41,45,46,49,50,51,52,54,55,56,57,58,59,60,61,63,65,66,67,68,69,71,72,76,80,82,83,85,87,88,89,90,92,93,94,95,96,98},{3,5,8,20,29,30,32,33,36,42,43,44,53,62,64,66,70,72,73,74,75,77,78,79,81,83,84,86,91,97,99},{0,5,6,7,14,15,16,18,19,31,40,41,46,47,50,51,55,56,57,58,59,62,63,76,88,89,93,94,98},{0,1,2,3,4,6,7,9,10,11,12,13,14,15,16,17,18,19,21,22,23,24,25,26,27,28,30,31,34,35,36,37,38,39,40,41,45,46,47,49,51,52,53,54,55,56,57,58,59,60,61,63,65,66,67,68,69,71,72,76,77,79,80,82,85,86,87,88,89,90,91,92,93,94,95,96,97,98},{0,1,2,3,4,6,7,9,10,11,12,13,14,15,16,17,18,19,21,22,23,24,25,26,27,28,30,31,34,35,37,38,39,40,41,45,46,47,49,50,52,54,55,56,57,58,59,60,61,63,65,66,67,68,69,70,71,72,73,75,76,77,80,82,83,84,85,87,88,89,90,92,93,94,95,96,98},{0,1,5,6,7,14,18,19,31,40,41,45,46,47,50,51,55,56,57,58,59,62,63,76,80,85,88,89,94,95,98},{0,5,6,8,20,29,31,32,33,36,40,42,43,44,46,48,50,55,62,63,64,74,77,78,79,81,86,91,97,98,99},{0,5,6,7,14,15,16,18,19,21,31,37,40,41,46,47,50,51,55,56,57,58,59,62,63,71,76,88,98},{0,1,2,3,4,6,7,9,10,11,12,13,14,15,16,17,18,19,21,22,23,24,25,26,27,28,30,31,34,35,36,37,38,39,40,41,45,46,47,49,50,51,52,53,54,56,57,58,59,60,61,63,65,66,67,68,69,71,72,76,77,79,80,82,85,86,87,88,89,90,91,92,93,94,95,96,97,98},{0,1,2,3,4,6,7,9,10,11,12,13,14,15,16,17,18,19,21,22,23,24,25,26,27,28,30,31,34,35,37,38,39,40,41,45,46,47,49,50,51,52,54,55,57,58,59,60,61,63,65,66,67,68,69,70,71,72,73,75,76,80,82,83,84,85,87,88,89,90,92,93,94,95,96,98},{0,1,2,4,5,6,7,9,10,11,12,13,14,15,16,17,18,19,21,22,23,24,25,26,27,28,31,34,35,37,38,39,40,41,42,43,44,45,46,47,49,50,51,52,54,55,56,58,59,60,61,62,63,65,67,68,69,71,72,76,78,80,82,85,87,88,89,90,92,93,94,95,96,98,99},{0,1,2,4,6,7,9,10,11,12,13,14,15,16,17,18,19,21,22,23,24,25,26,27,28,30,31,34,35,37,38,39,40,41,45,46,47,49,50,51,52,54,55,56,57,59,60,61,63,65,66,67,68,69,70,71,72,76,80,82,83,85,87,88,89,90,92,93,94,95,96,98},{0,1,2,4,5,6,7,9,10,11,12,14,15,16,18,19,21,22,23,24,25,26,27,31,35,37,38,39,40,41,42,43,44,45,46,47,49,50,51,52,54,55,56,57,58,60,61,62,63,67,68,69,71,76,78,80,85,87,88,89,93,94,95,96,98,99},{0,5,6,7,14,18,19,26,31,35,40,41,46,47,50,51,55,56,57,58,59,62,63,76,87,88,89,94,96,98},{0,5,6,7,14,15,16,18,19,23,31,40,41,46,47,50,51,55,56,57,58,59,62,63,76,88,98},{1,2,3,4,5,8,9,10,11,12,13,14,15,16,17,19,20,21,22,23,24,25,26,27,28,29,32,33,34,35,36,37,38,39,41,42,43,44,45,48,49,52,53,54,57,59,60,61,64,65,66,67,68,69,70,71,72,73,74,75,77,78,79,80,81,82,83,84,85,86,87,88,89,90,91,92,93,94,95,96,97,99},{0,1,2,3,4,6,7,9,10,11,12,13,14,15,16,17,18,19,21,22,23,24,25,26,27,28,30,31,34,35,36,37,38,39,40,41,45,46,47,49,50,51,52,53,54,55,56,57,58,59,60,61,65,66,67,68,69,71,72,76,77,79,80,82,85,86,87,88,89,90,91,92,93,94,95,96,97,98},{3,5,8,20,29,30,32,33,34,36,42,43,44,48,53,62,65,66,70,72,73,74,75,77,78,79,81,82,83,84,86,90,91,92,97,99},{0,5,6,7,13,17,18,20,28,31,32,33,34,40,46,47,50,51,55,56,57,58,62,63,64,72,76,82,90,92,98},{0,5,7,8,20,29,31,32,33,40,42,43,44,46,47,48,50,51,55,56,58,62,63,64,74,76,78,81,98,99},{0,5,6,7,14,18,19,24,25,31,40,41,46,47,50,51,55,56,57,58,59,62,63,76,85,88,89,94,95,98},{0,1,5,6,7,14,18,19,31,40,41,46,47,50,51,55,56,57,58,59,62,63,69,76,80,85,88,89,94,95,98},{0,1,5,6,7,14,18,19,31,40,41,46,47,50,51,55,56,57,58,59,62,63,68,76,80,85,88,89,94,95,98},{0,5,7,8,20,29,32,33,42,43,44,46,48,51,56,58,62,64,73,74,75,76,77,78,79,81,83,84,86,98,99},{0,5,6,7,14,15,16,18,19,21,31,37,40,41,46,47,50,51,54,55,56,57,58,59,62,63,76,88,98},{0,5,6,7,8,13,17,18,20,28,29,31,32,33,34,40,46,47,48,50,51,55,56,57,58,62,63,64,65,76,81,82,90,92,98},{0,5,7,8,20,29,32,33,42,43,44,46,48,51,56,62,64,70,74,75,76,77,78,79,81,83,84,86,98,99},{3,5,8,20,29,32,33,36,42,43,44,48,53,62,64,66,70,73,75,77,78,79,81,83,84,86,91,97,99},{0,5,8,20,29,32,33,42,43,44,46,48,51,56,62,64,70,73,74,77,78,79,81,83,84,86,98,99},{0,1,2,3,4,6,7,9,10,11,12,13,14,15,16,17,18,19,21,22,23,24,25,26,27,28,30,31,34,35,37,38,39,40,41,45,46,47,49,50,51,52,54,55,56,57,58,59,60,61,63,65,66,67,68,69,70,71,72,73,80,82,83,84,85,87,88,89,90,92,93,94,95,96,98},{0,5,6,8,20,29,31,32,33,36,40,42,43,44,46,48,50,51,53,55,62,63,64,70,73,74,75,78,79,81,83,84,86,91,97,98,99},{3,5,8,14,15,16,20,29,32,33,36,41,42,43,44,48,53,57,59,62,64,66,70,73,74,75,77,79,81,83,84,86,88,91,97,99},{0,5,6,8,20,29,31,32,33,36,40,42,43,44,46,48,50,53,55,62,63,64,70,73,74,75,77,78,81,83,84,86,91,97,98,99},{0,1,2,5,6,7,14,15,18,19,31,40,41,45,46,47,50,51,52,55,56,57,58,59,62,63,68,69,76,85,88,89,94,95,98},{3,5,8,20,29,30,32,33,34,36,42,43,44,48,53,62,64,66,70,72,73,74,75,77,78,79,82,83,84,86,90,91,97,99},{0,5,6,7,13,17,18,20,28,29,31,32,33,34,40,46,47,50,51,55,56,57,58,62,63,64,65,72,76,81,90,92,98},{0,5,7,8,20,29,32,33,42,43,44,46,47,48,51,56,58,62,64,70,73,74,75,76,77,78,79,81,84,86,98,99},{0,5,8,20,29,32,33,42,43,44,46,48,51,56,62,64,70,73,74,75,76,77,78,79,81,83,86,98,99},{0,1,2,5,6,7,14,15,18,19,24,25,31,40,41,45,46,47,50,51,52,55,56,57,58,59,62,63,67,68,69,76,80,88,89,94,95,98},{0,5,6,8,20,29,31,32,33,36,40,42,43,44,46,48,50,53,55,62,63,64,70,73,74,75,77,78,79,81,83,84,91,97,98,99},{0,5,6,7,14,18,19,26,31,35,40,41,46,47,50,51,55,56,57,58,59,60,62,63,76,88,89,94,96,98},{0,1,2,4,5,6,7,9,10,11,12,14,15,16,18,19,21,22,23,24,25,26,27,31,35,37,38,39,40,41,42,43,44,45,46,47,49,50,51,52,54,55,56,57,58,59,60,61,62,63,67,68,69,71,76,78,80,85,87,89,93,94,95,96,98,99},{0,1,2,5,6,7,9,10,11,12,14,15,16,18,19,22,24,25,26,31,35,38,39,40,41,45,46,47,49,50,51,52,55,56,57,58,59,60,62,63,67,68,69,76,80,85,87,88,93,94,95,96,98},{0,5,6,7,13,17,18,20,28,31,32,33,34,40,46,47,50,51,55,56,57,58,62,63,64,65,72,76,81,82,92,98},{0,5,6,8,20,29,31,32,33,36,40,42,43,44,46,48,50,53,55,62,63,64,74,77,78,79,81,86,97,98,99},{0,5,6,7,13,17,18,28,31,32,33,34,40,46,47,50,51,55,56,57,58,62,63,64,65,72,76,82,90,98},{0,5,6,7,14,15,16,18,19,31,40,41,46,47,49,50,51,55,56,57,58,59,62,63,76,88,89,94,98},{0,1,2,5,6,7,9,10,11,12,14,15,16,18,19,22,24,25,26,31,35,37,38,39,40,41,45,46,47,49,50,51,52,55,56,57,58,59,60,62,63,67,68,69,76,80,85,87,88,89,93,95,96,98},{0,1,2,5,6,7,14,18,19,22,24,25,31,38,40,41,45,46,47,50,51,52,55,56,57,58,59,62,63,67,68,69,76,80,85,88,89,94,98},{0,5,6,7,9,14,18,19,24,26,31,35,40,41,46,47,50,51,55,56,57,58,59,60,62,63,76,87,88,89,94,98},{0,5,6,8,20,29,31,32,33,36,40,42,43,44,46,48,50,53,55,62,63,64,74,77,78,79,81,86,91,98,99},{0,1,2,3,4,6,7,9,10,11,12,13,14,15,16,17,18,19,21,22,23,24,25,26,27,28,30,31,34,35,36,37,38,39,40,41,45,46,47,49,50,51,52,53,54,55,56,57,58,59,60,61,63,65,66,67,68,69,70,71,72,73,75,76,77,79,80,82,83,84,85,86,87,88,89,90,91,92,93,94,95,96,97},{3,5,8,14,15,16,20,29,32,33,36,41,42,43,44,48,53,57,59,62,64,66,70,73,74,75,77,78,79,81,83,84,86,88,91,97}];
weights=[19,19,19,19,19,18,18,18,18,18,18,18,18,18,17,17,17,17,16,16,16,16,16,16,15,15,15,15,15,14,14,13,13,13,13,13,13,13,13,13,12,12,12,12,12,12,11,11,11,11,10,10,10,10,10,9,9,9,9,9,9,9,8,8,8,8,8,8,7,7,7,7,6,6,6,6,5,5,5,5,5,5,5,5,5,4,4,4,3,3,3,3,3,3,2,2,2,2,1,1];
